branch-and-cut/resultados/B/b03.sol
# Objective value = 138
e[0,48] 1
e[48,0] 1
e[3,4] 1
e[4,3] 1
e[3,47] 1
e[47,3] 1
e[6,16] 0
e[16,6] 0
e[6,32] 0
e[32,6] 0
e[8,9] 1
e[9,8] 1
e[8,17] 1
e[17,8] 1
e[8,20] 1
e[20,8] 1
e[8,21] 0
e[21,8] 0
e[8,40] 0
e[40,8] 0
e[8,44] 0
e[44,8] 0
e[9,5] 0
e[5,9] 0
e[9,12] 1
e[12,9] 1
e[9,29] 0
e[29,9] 0
e[9,47] 1
e[47,9] 1
e[10,2] 0
e[2,10] 0
e[10,14] 1
e[14,10] 1
e[10,19] 1
e[19,10] 1
e[11,34] 0
e[34,11] 0
e[12,33] 1
e[33,12] 1
e[13,27] 1
e[27,13] 1
e[14,46] 0
e[46,14] 0
e[15,37] 1
e[37,15] 1
e[16,49] 0
e[49,16] 0
e[17,15] 1
e[15,17] 1
e[18,11] 0
e[11,18] 0
e[19,9] 1
e[9,19] 1
e[19,22] 0
e[22,19] 0
e[20,7] 0
e[7,20] 0
e[20,10] 0
e[10,20] 0
e[20,11] 1
e[11,20] 1
e[20,29] 0
e[29,20] 0
e[21,3] 0
e[3,21] 0
e[21,4] 1
e[4,21] 1
e[21,24] 1
e[24,21] 1
e[21,49] 1
e[49,21] 1
e[23,26] 1
e[26,23] 1
e[25,38] 0
e[38,25] 0
e[26,8] 1
e[8,26] 1
e[28,6] 0
e[6,28] 0
e[28,36] 1
e[36,28] 1
e[29,11] 1
e[11,29] 1
e[29,25] 0
e[25,29] 0
e[29,31] 1
e[31,29] 1
e[30,4] 1
e[4,30] 1
e[30,29] 0
e[29,30] 0
e[32,35] 0
e[35,32] 0
e[33,0] 1
e[0,33] 1
e[33,45] 0
e[45,33] 0
e[35,41] 1
e[41,35] 1
e[36,30] 1
e[30,36] 1
e[39,18] 0
e[18,39] 0
e[39,23] 0
e[23,39] 0
e[40,28] 1
e[28,40] 1
e[40,41] 1
e[41,40] 1
e[41,43] 1
e[43,41] 1
e[42,8] 0
e[8,42] 0
e[44,5] 0
e[5,44] 0
e[47,1] 1
e[1,47] 1
e[49,13] 1
e[13,49] 1
e[49,38] 1
e[38,49] 1
e[49,39] 0
e[39,49] 0
e[49,42] 0
e[42,49] 0
