branch-and-cut/resultados/B/b03.log

Gurobi 10.0.3 (win64) logging started Sun Dec 17 19:57:12 2023

Set parameter LogFile to value "./resultados/log.log"
Set parameter TimeLimit to value 600
Gurobi Optimizer version 10.0.3 build v10.0.3rc0 (win64)

CPU model: AMD Ryzen 5 5600 6-Core Processor, instruction set [SSE2|AVX|AVX2]
Thread count: 6 physical cores, 12 logical processors, using up to 12 threads

Academic license 2433534 - for non-commercial use only - registered to gm___@gmail.com
Optimize a model with 201 rows, 126 columns and 3563 nonzeros
Model fingerprint: 0xdd5022d2
Variable types: 0 continuous, 126 integer (126 binary)
Coefficient statistics:
  Matrix range     [1e+00, 3e+01]
  Objective range  [5e-01, 5e+00]
  Bounds range     [1e+00, 1e+00]
  RHS range        [1e+00, 1e+00]
Found heuristic solution: objective 328.0000000
Presolve removed 187 rows and 70 columns
Presolve time: 0.00s
Presolved: 14 rows, 56 columns, 48 nonzeros
Variable types: 0 continuous, 56 integer (56 binary)
Root relaxation presolved: 24 rows, 53 columns, 92 nonzeros


Root relaxation: objective 1.040000e+02, 20 iterations, 0.00 seconds (0.00 work units)

    Nodes    |    Current Node    |     Objective Bounds      |     Work
 Expl Unexpl |  Obj  Depth IntInf | Incumbent    BestBd   Gap | It/Node Time

     0     0  104.00000    0    -  328.00000  104.00000  68.3%     -    0s
     0     0  113.50000    0   12  328.00000  113.50000  65.4%     -    0s
H    0     0                     248.0000000  113.50000  54.2%     -    0s
H    0     0                     155.0000000  124.00000  20.0%     -    0s
     0     0  124.00000    0    9  155.00000  124.00000  20.0%     -    0s
     0     0  127.00000    0    -  155.00000  127.00000  18.1%     -    0s
     0     0  127.00000    0    -  155.00000  127.00000  18.1%     -    0s
     0     0  128.00000    0    8  155.00000  128.00000  17.4%     -    0s
H    0     0                     150.0000000  135.00000  10.0%     -    0s
     0     0  135.00000    0    5  150.00000  135.00000  10.0%     -    0s
     0     0  136.00000    0    -  150.00000  136.00000  9.33%     -    0s
     0     0  136.00000    0    5  150.00000  136.00000  9.33%     -    0s
     0     0  136.00000    0    -  150.00000  136.00000  9.33%     -    0s
H    0     0                     138.0000000  136.00000  1.45%     -    0s
     0     0  136.00000    0    4  138.00000  136.00000  1.45%     -    0s
     0     0  136.00000    0    -  138.00000  136.00000  1.45%     -    0s
     0     0  136.00000    0    4  138.00000  136.00000  1.45%     -    0s
     0     0  136.00000    0   11  138.00000  136.00000  1.45%     -    0s
     0     0     cutoff    0       138.00000  138.00000  0.00%     -    0s

Cutting planes:
  User: 6
  Gomory: 1
  Flow cover: 5
  Zero half: 3
  RLT: 1
  Lazy constraints: 7

Explored 1 nodes (112 simplex iterations) in 0.53 seconds (0.01 work units)
Thread count was 12 (of 12 available processors)

Solution count 5: 138 150 155 ... 328

Optimal solution found (tolerance 1.00e-04)
Best objective 1.380000000000e+02, best bound 1.380000000000e+02, gap 0.0000%

User-callback calls 307, time in user-callback 0.47 sec
